14
0 434 659 605 325 1 353 8 20 864 535 174 8 81
434 0 128 95 1 751 140 393 88 503 389 191 349 15
659 128 0 38 252 59 381 199 166 16 90 166 31 111
605 95 38 0 26 20 189 30 167 814 3 32 110 153
325 1 252 26 0 413 217 31 296 130 774 454 250 145
1 751 59 20 413 0 270 115 83 95 331 100 6 88
353 140 381 189 217 270 0 284 406 364 129 69 409 8
8 393 199 30 31 115 284 0 749 109 234 433 37 127
20 88 166 167 296 83 406 749 0 485 229 410 6 5
864 503 16 814 130 95 364 109 485 0 2 423 623 117
535 389 90 3 774 331 129 234 229 2 0 767 111 197
174 191 166 32 454 100 69 433 410 423 767 0 288 54
8 349 31 110 250 6 409 37 6 623 111 288 0 456
81 15 111 153 145 88 8 127 5 117 197 54 456 0